Route #1: 26 12 72 58 10 38 65 31 39 40 17
Route #2: 51 3 44 32 9 50 25 55 18 24 49 16
Route #3: 33 63 23 56 41 43 42 64 22 1 73 2 68
Route #4: 6 62 28 61 69 36 71 60 70 20 37 5 15 57 13
Route #5: 54 19 14 59 66 11 53 35 7
Route #6: 8 52 27 45 29 48 47 21 74 30 75
Route #7: 4 34 46 67
Cost 714